p cnf 290 1791
137 178 189 200 211 0
-137 -178 0
-137 -189 0
-137 -200 0
-137 -211 0
-178 -189 0
-178 -200 0
-178 -211 0
-189 -200 0
-189 -211 0
-200 -211 0
178 61 13 25 37 0
-178 -61 0
-178 -13 0
-178 -25 0
-178 -37 0
-61 -13 0
-61 -25 0
-61 -37 0
-13 -25 0
-13 -37 0
-25 -37 0
178 49 4 7 10 0
-178 -49 0
-178 -4 0
-178 -7 0
-178 -10 0
-49 -4 0
-49 -7 0
-49 -10 0
-4 -7 0
-4 -10 0
-7 -10 0
189 80 4 28 40 0
-189 -80 0
-189 -4 0
-189 -28 0
-189 -40 0
-80 -4 0
-80 -28 0
-80 -40 0
-4 -28 0
-4 -40 0
-28 -40 0
189 52 13 19 22 0
-189 -52 0
-189 -13 0
-189 -19 0
-189 -22 0
-52 -13 0
-52 -19 0
-52 -22 0
-13 -19 0
-13 -22 0
-19 -22 0
200 99 7 19 43 0
-200 -99 0
-200 -7 0
-200 -19 0
-200 -43 0
-99 -7 0
-99 -19 0
-99 -43 0
-7 -19 0
-7 -43 0
-19 -43 0
200 55 25 28 34 0
-200 -55 0
-200 -25 0
-200 -28 0
-200 -34 0
-55 -25 0
-55 -28 0
-55 -34 0
-25 -28 0
-25 -34 0
-28 -34 0
211 118 10 22 34 0
-211 -118 0
-211 -10 0
-211 -22 0
-211 -34 0
-118 -10 0
-118 -22 0
-118 -34 0
-10 -22 0
-10 -34 0
-22 -34 0
211 58 37 40 43 0
-211 -58 0
-211 -37 0
-211 -40 0
-211 -43 0
-58 -37 0
-58 -40 0
-58 -43 0
-37 -40 0
-37 -43 0
-40 -43 0
-4 -13 0
-7 -25 0
-10 -37 0
-19 -28 0
-22 -40 0
-34 -43 0
-4 -19 -25 0
-4 -19 -34 -37 0
-13 -7 -28 0
-13 -7 -34 -40 0
-19 -25 -4 0
-19 -25 -10 -40 0
-19 -34 -40 0
-19 -34 -37 -4 0
-7 -28 -13 0
-7 -28 -22 -37 0
-25 -4 -19 0
-25 -4 -22 -43 0
-28 -13 -7 0
-28 -13 -10 -43 0
-28 -22 -43 0
-28 -22 -37 -7 0
-7 -34 -37 0
-7 -34 -40 -13 0
-25 -10 -43 0
-25 -10 -40 -19 0
-34 -37 -7 0
-34 -37 -4 -19 0
-34 -40 -19 0
-34 -40 -13 -7 0
-4 -22 -37 0
-4 -22 -43 -25 0
-13 -10 -40 0
-13 -10 -43 -28 0
-22 -37 -4 0
-22 -37 -7 -28 0
-22 -43 -28 0
-22 -43 -25 -4 0
-10 -40 -13 0
-10 -40 -19 -25 0
-37 -4 -22 0
-37 -4 -19 -34 0
-40 -13 -10 0
-40 -13 -7 -34 0
-40 -19 -34 0
-40 -19 -25 -10 0
-10 -43 -25 0
-10 -43 -28 -13 0
-37 -7 -34 0
-37 -7 -28 -22 0
-43 -25 -10 0
-43 -25 -4 -22 0
-43 -28 -22 0
-43 -28 -13 -10 0
-137 -61 -49 -251 -238 0
-137 -61 -49 -251 -242 0
-137 -61 -49 -251 -246 0
-137 -61 -49 -251 247 0
-137 -80 -52 -252 -239 0
-137 -80 -52 -252 -243 0
-137 -80 -52 -252 -246 0
-137 -80 -52 -252 248 0
-137 -99 -55 -253 -240 0
-137 -99 -55 -253 -244 0
-137 -99 -55 -253 -246 0
-137 -99 -55 -253 249 0
-137 -118 -58 -254 -241 0
-137 -118 -58 -254 -245 0
-137 -118 -58 -254 -246 0
-137 -118 -58 -254 250 0
-178 -255 -247 0
-178 -255 242 0
-178 -255 246 0
-178 -255 238 0
-189 -256 -248 0
-189 -256 243 0
-189 -256 246 0
-189 -256 239 0
-200 -257 -249 0
-200 -257 244 0
-200 -257 246 0
-200 -257 240 0
-211 -258 -250 0
-211 -258 245 0
-211 -258 246 0
-211 -258 241 0
-178 -61 -259 -247 0
-178 -61 -259 -242 0
-178 -61 -259 242 0
-178 -61 -259 246 0
-178 -61 -259 222 0
-178 -80 -260 -247 0
-178 -80 -260 -243 0
-178 -80 -260 242 0
-178 -80 -260 246 0
-178 -80 -260 223 0
-178 -99 -261 -247 0
-178 -99 -261 -244 0
-178 -99 -261 242 0
-178 -99 -261 246 0
-178 -99 -261 224 0
-178 -118 -262 -247 0
-178 -118 -262 -245 0
-178 -118 -262 242 0
-178 -118 -262 246 0
-178 -118 -262 225 0
-189 -61 -263 -248 0
-189 -61 -263 -242 0
-189 -61 -263 243 0
-189 -61 -263 246 0
-189 -61 -263 226 0
-189 -80 -264 -248 0
-189 -80 -264 -243 0
-189 -80 -264 243 0
-189 -80 -264 246 0
-189 -80 -264 227 0
-189 -99 -265 -248 0
-189 -99 -265 -244 0
-189 -99 -265 243 0
-189 -99 -265 246 0
-189 -99 -265 228 0
-189 -118 -266 -248 0
-189 -118 -266 -245 0
-189 -118 -266 243 0
-189 -118 -266 246 0
-189 -118 -266 229 0
-200 -61 -267 -249 0
-200 -61 -267 -242 0
-200 -61 -267 244 0
-200 -61 -267 246 0
-200 -61 -267 230 0
-200 -80 -268 -249 0
-200 -80 -268 -243 0
-200 -80 -268 244 0
-200 -80 -268 246 0
-200 -80 -268 231 0
-200 -99 -269 -249 0
-200 -99 -269 -244 0
-200 -99 -269 244 0
-200 -99 -269 246 0
-200 -99 -269 232 0
-200 -118 -270 -249 0
-200 -118 -270 -245 0
-200 -118 -270 244 0
-200 -118 -270 246 0
-200 -118 -270 233 0
-211 -61 -271 -250 0
-211 -61 -271 -242 0
-211 -61 -271 245 0
-211 -61 -271 246 0
-211 -61 -271 234 0
-211 -80 -272 -250 0
-211 -80 -272 -243 0
-211 -80 -272 245 0
-211 -80 -272 246 0
-211 -80 -272 235 0
-211 -99 -273 -250 0
-211 -99 -273 -244 0
-211 -99 -273 245 0
-211 -99 -273 246 0
-211 -99 -273 236 0
-211 -118 -274 -250 0
-211 -118 -274 -245 0
-211 -118 -274 245 0
-211 -118 -274 246 0
-211 -118 -274 237 0
-137 -1 -61 -275 247 0
-137 -1 -61 -275 242 0
-137 -1 -61 -275 -242 0
-137 -1 -61 -275 -246 0
-137 -1 -61 -275 -222 0
-137 -4 -61 -276 247 0
-137 -4 -61 -276 243 0
-137 -4 -61 -276 -242 0
-137 -4 -61 -276 -246 0
-137 -4 -61 -276 -223 0
-137 -7 -61 -277 247 0
-137 -7 -61 -277 244 0
-137 -7 -61 -277 -242 0
-137 -7 -61 -277 -246 0
-137 -7 -61 -277 -224 0
-137 -10 -61 -278 247 0
-137 -10 -61 -278 245 0
-137 -10 -61 -278 -242 0
-137 -10 -61 -278 -246 0
-137 -10 -61 -278 -225 0
-137 -13 -80 -279 248 0
-137 -13 -80 -279 242 0
-137 -13 -80 -279 -243 0
-137 -13 -80 -279 -246 0
-137 -13 -80 -279 -226 0
-137 -16 -80 -280 248 0
-137 -16 -80 -280 243 0
-137 -16 -80 -280 -243 0
-137 -16 -80 -280 -246 0
-137 -16 -80 -280 -227 0
-137 -19 -80 -281 248 0
-137 -19 -80 -281 244 0
-137 -19 -80 -281 -243 0
-137 -19 -80 -281 -246 0
-137 -19 -80 -281 -228 0
-137 -22 -80 -282 248 0
-137 -22 -80 -282 245 0
-137 -22 -80 -282 -243 0
-137 -22 -80 -282 -246 0
-137 -22 -80 -282 -229 0
-137 -25 -99 -283 249 0
-137 -25 -99 -283 242 0
-137 -25 -99 -283 -244 0
-137 -25 -99 -283 -246 0
-137 -25 -99 -283 -230 0
-137 -28 -99 -284 249 0
-137 -28 -99 -284 243 0
-137 -28 -99 -284 -244 0
-137 -28 -99 -284 -246 0
-137 -28 -99 -284 -231 0
-137 -31 -99 -285 249 0
-137 -31 -99 -285 244 0
-137 -31 -99 -285 -244 0
-137 -31 -99 -285 -246 0
-137 -31 -99 -285 -232 0
-137 -34 -99 -286 249 0
-137 -34 -99 -286 245 0
-137 -34 -99 -286 -244 0
-137 -34 -99 -286 -246 0
-137 -34 -99 -286 -233 0
-137 -37 -118 -287 250 0
-137 -37 -118 -287 242 0
-137 -37 -118 -287 -245 0
-137 -37 -118 -287 -246 0
-137 -37 -118 -287 -234 0
-137 -40 -118 -288 250 0
-137 -40 -118 -288 243 0
-137 -40 -118 -288 -245 0
-137 -40 -118 -288 -246 0
-137 -40 -118 -288 -235 0
-137 -43 -118 -289 250 0
-137 -43 -118 -289 244 0
-137 -43 -118 -289 -245 0
-137 -43 -118 -289 -246 0
-137 -43 -118 -289 -236 0
-137 -46 -118 -290 250 0
-137 -46 -118 -290 245 0
-137 -46 -118 -290 -245 0
-137 -46 -118 -290 -246 0
-137 -46 -118 -290 -237 0
-137 -1 -61 -275 2 0
-2 137 0
-2 1 0
-2 61 0
-2 275 0
2 -1 222 0
-178 -61 -259 3 0
-3 178 0
-3 61 0
-3 259 0
3 1 -222 0
-137 -4 -61 -276 5 0
-5 137 0
-5 4 0
-5 61 0
-5 276 0
5 -4 223 0
-178 -80 -260 6 0
-6 178 0
-6 80 0
-6 260 0
6 4 -223 0
-137 -7 -61 -277 8 0
-8 137 0
-8 7 0
-8 61 0
-8 277 0
8 -7 224 0
-178 -99 -261 9 0
-9 178 0
-9 99 0
-9 261 0
9 7 -224 0
-137 -10 -61 -278 11 0
-11 137 0
-11 10 0
-11 61 0
-11 278 0
11 -10 225 0
-178 -118 -262 12 0
-12 178 0
-12 118 0
-12 262 0
12 10 -225 0
-137 -13 -80 -279 14 0
-14 137 0
-14 13 0
-14 80 0
-14 279 0
14 -13 226 0
-189 -61 -263 15 0
-15 189 0
-15 61 0
-15 263 0
15 13 -226 0
-137 -16 -80 -280 17 0
-17 137 0
-17 16 0
-17 80 0
-17 280 0
17 -16 227 0
-189 -80 -264 18 0
-18 189 0
-18 80 0
-18 264 0
18 16 -227 0
-137 -19 -80 -281 20 0
-20 137 0
-20 19 0
-20 80 0
-20 281 0
20 -19 228 0
-189 -99 -265 21 0
-21 189 0
-21 99 0
-21 265 0
21 19 -228 0
-137 -22 -80 -282 23 0
-23 137 0
-23 22 0
-23 80 0
-23 282 0
23 -22 229 0
-189 -118 -266 24 0
-24 189 0
-24 118 0
-24 266 0
24 22 -229 0
-137 -25 -99 -283 26 0
-26 137 0
-26 25 0
-26 99 0
-26 283 0
26 -25 230 0
-200 -61 -267 27 0
-27 200 0
-27 61 0
-27 267 0
27 25 -230 0
-137 -28 -99 -284 29 0
-29 137 0
-29 28 0
-29 99 0
-29 284 0
29 -28 231 0
-200 -80 -268 30 0
-30 200 0
-30 80 0
-30 268 0
30 28 -231 0
-137 -31 -99 -285 32 0
-32 137 0
-32 31 0
-32 99 0
-32 285 0
32 -31 232 0
-200 -99 -269 33 0
-33 200 0
-33 99 0
-33 269 0
33 31 -232 0
-137 -34 -99 -286 35 0
-35 137 0
-35 34 0
-35 99 0
-35 286 0
35 -34 233 0
-200 -118 -270 36 0
-36 200 0
-36 118 0
-36 270 0
36 34 -233 0
-137 -37 -118 -287 38 0
-38 137 0
-38 37 0
-38 118 0
-38 287 0
38 -37 234 0
-211 -61 -271 39 0
-39 211 0
-39 61 0
-39 271 0
39 37 -234 0
-137 -40 -118 -288 41 0
-41 137 0
-41 40 0
-41 118 0
-41 288 0
41 -40 235 0
-211 -80 -272 42 0
-42 211 0
-42 80 0
-42 272 0
42 40 -235 0
-137 -43 -118 -289 44 0
-44 137 0
-44 43 0
-44 118 0
-44 289 0
44 -43 236 0
-211 -99 -273 45 0
-45 211 0
-45 99 0
-45 273 0
45 43 -236 0
-137 -46 -118 -290 47 0
-47 137 0
-47 46 0
-47 118 0
-47 290 0
47 -46 237 0
-211 -118 -274 48 0
-48 211 0
-48 118 0
-48 274 0
48 46 -237 0
-137 -61 -49 -251 50 0
-50 137 0
-50 61 0
-50 49 0
-50 251 0
50 -49 238 0
-178 -255 51 0
-51 178 0
-51 255 0
51 49 -238 0
-137 -80 -52 -252 53 0
-53 137 0
-53 80 0
-53 52 0
-53 252 0
53 -52 239 0
-189 -256 54 0
-54 189 0
-54 256 0
54 52 -239 0
-137 -99 -55 -253 56 0
-56 137 0
-56 99 0
-56 55 0
-56 253 0
56 -55 240 0
-200 -257 57 0
-57 200 0
-57 257 0
57 55 -240 0
-137 -118 -58 -254 59 0
-59 137 0
-59 118 0
-59 58 0
-59 254 0
59 -58 241 0
-211 -258 60 0
-60 211 0
-60 258 0
60 58 -241 0
-137 -61 -49 -251 62 0
-62 137 0
-62 61 0
-62 49 0
-62 251 0
-178 -61 -259 63 0
-63 178 0
-63 61 0
-63 259 0
-189 -61 -263 64 0
-64 189 0
-64 61 0
-64 263 0
-200 -61 -267 65 0
-65 200 0
-65 61 0
-65 267 0
-211 -61 -271 66 0
-66 211 0
-66 61 0
-66 271 0
-137 -1 -61 -275 67 0
-67 137 0
-67 1 0
-67 61 0
-67 275 0
-137 -4 -61 -276 68 0
-68 137 0
-68 4 0
-68 61 0
-68 276 0
-137 -7 -61 -277 69 0
-69 137 0
-69 7 0
-69 61 0
-69 277 0
-137 -10 -61 -278 70 0
-70 137 0
-70 10 0
-70 61 0
-70 278 0
62 63 64 65 66 67 68 69 70 -61 242 0
-178 -255 71 0
-71 178 0
-71 255 0
-178 -61 -259 72 0
-72 178 0
-72 61 0
-72 259 0
-178 -80 -260 73 0
-73 178 0
-73 80 0
-73 260 0
-178 -99 -261 74 0
-74 178 0
-74 99 0
-74 261 0
-178 -118 -262 75 0
-75 178 0
-75 118 0
-75 262 0
-137 -1 -61 -275 76 0
-76 137 0
-76 1 0
-76 61 0
-76 275 0
-137 -13 -80 -279 77 0
-77 137 0
-77 13 0
-77 80 0
-77 279 0
-137 -25 -99 -283 78 0
-78 137 0
-78 25 0
-78 99 0
-78 283 0
-137 -37 -118 -287 79 0
-79 137 0
-79 37 0
-79 118 0
-79 287 0
71 72 73 74 75 76 77 78 79 61 -242 0
-137 -80 -52 -252 81 0
-81 137 0
-81 80 0
-81 52 0
-81 252 0
-178 -80 -260 82 0
-82 178 0
-82 80 0
-82 260 0
-189 -80 -264 83 0
-83 189 0
-83 80 0
-83 264 0
-200 -80 -268 84 0
-84 200 0
-84 80 0
-84 268 0
-211 -80 -272 85 0
-85 211 0
-85 80 0
-85 272 0
-137 -13 -80 -279 86 0
-86 137 0
-86 13 0
-86 80 0
-86 279 0
-137 -16 -80 -280 87 0
-87 137 0
-87 16 0
-87 80 0
-87 280 0
-137 -19 -80 -281 88 0
-88 137 0
-88 19 0
-88 80 0
-88 281 0
-137 -22 -80 -282 89 0
-89 137 0
-89 22 0
-89 80 0
-89 282 0
81 82 83 84 85 86 87 88 89 -80 243 0
-189 -256 90 0
-90 189 0
-90 256 0
-189 -61 -263 91 0
-91 189 0
-91 61 0
-91 263 0
-189 -80 -264 92 0
-92 189 0
-92 80 0
-92 264 0
-189 -99 -265 93 0
-93 189 0
-93 99 0
-93 265 0
-189 -118 -266 94 0
-94 189 0
-94 118 0
-94 266 0
-137 -4 -61 -276 95 0
-95 137 0
-95 4 0
-95 61 0
-95 276 0
-137 -16 -80 -280 96 0
-96 137 0
-96 16 0
-96 80 0
-96 280 0
-137 -28 -99 -284 97 0
-97 137 0
-97 28 0
-97 99 0
-97 284 0
-137 -40 -118 -288 98 0
-98 137 0
-98 40 0
-98 118 0
-98 288 0
90 91 92 93 94 95 96 97 98 80 -243 0
-137 -99 -55 -253 100 0
-100 137 0
-100 99 0
-100 55 0
-100 253 0
-178 -99 -261 101 0
-101 178 0
-101 99 0
-101 261 0
-189 -99 -265 102 0
-102 189 0
-102 99 0
-102 265 0
-200 -99 -269 103 0
-103 200 0
-103 99 0
-103 269 0
-211 -99 -273 104 0
-104 211 0
-104 99 0
-104 273 0
-137 -25 -99 -283 105 0
-105 137 0
-105 25 0
-105 99 0
-105 283 0
-137 -28 -99 -284 106 0
-106 137 0
-106 28 0
-106 99 0
-106 284 0
-137 -31 -99 -285 107 0
-107 137 0
-107 31 0
-107 99 0
-107 285 0
-137 -34 -99 -286 108 0
-108 137 0
-108 34 0
-108 99 0
-108 286 0
100 101 102 103 104 105 106 107 108 -99 244 0
-200 -257 109 0
-109 200 0
-109 257 0
-200 -61 -267 110 0
-110 200 0
-110 61 0
-110 267 0
-200 -80 -268 111 0
-111 200 0
-111 80 0
-111 268 0
-200 -99 -269 112 0
-112 200 0
-112 99 0
-112 269 0
-200 -118 -270 113 0
-113 200 0
-113 118 0
-113 270 0
-137 -7 -61 -277 114 0
-114 137 0
-114 7 0
-114 61 0
-114 277 0
-137 -19 -80 -281 115 0
-115 137 0
-115 19 0
-115 80 0
-115 281 0
-137 -31 -99 -285 116 0
-116 137 0
-116 31 0
-116 99 0
-116 285 0
-137 -43 -118 -289 117 0
-117 137 0
-117 43 0
-117 118 0
-117 289 0
109 110 111 112 113 114 115 116 117 99 -244 0
-137 -118 -58 -254 119 0
-119 137 0
-119 118 0
-119 58 0
-119 254 0
-178 -118 -262 120 0
-120 178 0
-120 118 0
-120 262 0
-189 -118 -266 121 0
-121 189 0
-121 118 0
-121 266 0
-200 -118 -270 122 0
-122 200 0
-122 118 0
-122 270 0
-211 -118 -274 123 0
-123 211 0
-123 118 0
-123 274 0
-137 -37 -118 -287 124 0
-124 137 0
-124 37 0
-124 118 0
-124 287 0
-137 -40 -118 -288 125 0
-125 137 0
-125 40 0
-125 118 0
-125 288 0
-137 -43 -118 -289 126 0
-126 137 0
-126 43 0
-126 118 0
-126 289 0
-137 -46 -118 -290 127 0
-127 137 0
-127 46 0
-127 118 0
-127 290 0
119 120 121 122 123 124 125 126 127 -118 245 0
-211 -258 128 0
-128 211 0
-128 258 0
-211 -61 -271 129 0
-129 211 0
-129 61 0
-129 271 0
-211 -80 -272 130 0
-130 211 0
-130 80 0
-130 272 0
-211 -99 -273 131 0
-131 211 0
-131 99 0
-131 273 0
-211 -118 -274 132 0
-132 211 0
-132 118 0
-132 274 0
-137 -10 -61 -278 133 0
-133 137 0
-133 10 0
-133 61 0
-133 278 0
-137 -22 -80 -282 134 0
-134 137 0
-134 22 0
-134 80 0
-134 282 0
-137 -34 -99 -286 135 0
-135 137 0
-135 34 0
-135 99 0
-135 286 0
-137 -46 -118 -290 136 0
-136 137 0
-136 46 0
-136 118 0
-136 290 0
128 129 130 131 132 133 134 135 136 118 -245 0
-137 -61 -49 -251 138 0
-138 137 0
-138 61 0
-138 49 0
-138 251 0
-137 -80 -52 -252 139 0
-139 137 0
-139 80 0
-139 52 0
-139 252 0
-137 -99 -55 -253 140 0
-140 137 0
-140 99 0
-140 55 0
-140 253 0
-137 -118 -58 -254 141 0
-141 137 0
-141 118 0
-141 58 0
-141 254 0
-137 -1 -61 -275 142 0
-142 137 0
-142 1 0
-142 61 0
-142 275 0
-137 -4 -61 -276 143 0
-143 137 0
-143 4 0
-143 61 0
-143 276 0
-137 -7 -61 -277 144 0
-144 137 0
-144 7 0
-144 61 0
-144 277 0
-137 -10 -61 -278 145 0
-145 137 0
-145 10 0
-145 61 0
-145 278 0
-137 -13 -80 -279 146 0
-146 137 0
-146 13 0
-146 80 0
-146 279 0
-137 -16 -80 -280 147 0
-147 137 0
-147 16 0
-147 80 0
-147 280 0
-137 -19 -80 -281 148 0
-148 137 0
-148 19 0
-148 80 0
-148 281 0
-137 -22 -80 -282 149 0
-149 137 0
-149 22 0
-149 80 0
-149 282 0
-137 -25 -99 -283 150 0
-150 137 0
-150 25 0
-150 99 0
-150 283 0
-137 -28 -99 -284 151 0
-151 137 0
-151 28 0
-151 99 0
-151 284 0
-137 -31 -99 -285 152 0
-152 137 0
-152 31 0
-152 99 0
-152 285 0
-137 -34 -99 -286 153 0
-153 137 0
-153 34 0
-153 99 0
-153 286 0
-137 -37 -118 -287 154 0
-154 137 0
-154 37 0
-154 118 0
-154 287 0
-137 -40 -118 -288 155 0
-155 137 0
-155 40 0
-155 118 0
-155 288 0
-137 -43 -118 -289 156 0
-156 137 0
-156 43 0
-156 118 0
-156 289 0
-137 -46 -118 -290 157 0
-157 137 0
-157 46 0
-157 118 0
-157 290 0
138 139 140 141 142 143 144 145 146 147 148 149 150 151 152 153 154 155 156 157 -137 246 0
-178 -255 158 0
-158 178 0
-158 255 0
-189 -256 159 0
-159 189 0
-159 256 0
-200 -257 160 0
-160 200 0
-160 257 0
-211 -258 161 0
-161 211 0
-161 258 0
-178 -61 -259 162 0
-162 178 0
-162 61 0
-162 259 0
-178 -80 -260 163 0
-163 178 0
-163 80 0
-163 260 0
-178 -99 -261 164 0
-164 178 0
-164 99 0
-164 261 0
-178 -118 -262 165 0
-165 178 0
-165 118 0
-165 262 0
-189 -61 -263 166 0
-166 189 0
-166 61 0
-166 263 0
-189 -80 -264 167 0
-167 189 0
-167 80 0
-167 264 0
-189 -99 -265 168 0
-168 189 0
-168 99 0
-168 265 0
-189 -118 -266 169 0
-169 189 0
-169 118 0
-169 266 0
-200 -61 -267 170 0
-170 200 0
-170 61 0
-170 267 0
-200 -80 -268 171 0
-171 200 0
-171 80 0
-171 268 0
-200 -99 -269 172 0
-172 200 0
-172 99 0
-172 269 0
-200 -118 -270 173 0
-173 200 0
-173 118 0
-173 270 0
-211 -61 -271 174 0
-174 211 0
-174 61 0
-174 271 0
-211 -80 -272 175 0
-175 211 0
-175 80 0
-175 272 0
-211 -99 -273 176 0
-176 211 0
-176 99 0
-176 273 0
-211 -118 -274 177 0
-177 211 0
-177 118 0
-177 274 0
158 159 160 161 162 163 164 165 166 167 168 169 170 171 172 173 174 175 176 177 137 -246 0
-178 -255 179 0
-179 178 0
-179 255 0
-178 -61 -259 180 0
-180 178 0
-180 61 0
-180 259 0
-178 -80 -260 181 0
-181 178 0
-181 80 0
-181 260 0
-178 -99 -261 182 0
-182 178 0
-182 99 0
-182 261 0
-178 -118 -262 183 0
-183 178 0
-183 118 0
-183 262 0
179 180 181 182 183 -178 247 0
-137 -61 -49 -251 184 0
-184 137 0
-184 61 0
-184 49 0
-184 251 0
-137 -1 -61 -275 185 0
-185 137 0
-185 1 0
-185 61 0
-185 275 0
-137 -4 -61 -276 186 0
-186 137 0
-186 4 0
-186 61 0
-186 276 0
-137 -7 -61 -277 187 0
-187 137 0
-187 7 0
-187 61 0
-187 277 0
-137 -10 -61 -278 188 0
-188 137 0
-188 10 0
-188 61 0
-188 278 0
184 185 186 187 188 178 -247 0
-189 -256 190 0
-190 189 0
-190 256 0
-189 -61 -263 191 0
-191 189 0
-191 61 0
-191 263 0
-189 -80 -264 192 0
-192 189 0
-192 80 0
-192 264 0
-189 -99 -265 193 0
-193 189 0
-193 99 0
-193 265 0
-189 -118 -266 194 0
-194 189 0
-194 118 0
-194 266 0
190 191 192 193 194 -189 248 0
-137 -80 -52 -252 195 0
-195 137 0
-195 80 0
-195 52 0
-195 252 0
-137 -13 -80 -279 196 0
-196 137 0
-196 13 0
-196 80 0
-196 279 0
-137 -16 -80 -280 197 0
-197 137 0
-197 16 0
-197 80 0
-197 280 0
-137 -19 -80 -281 198 0
-198 137 0
-198 19 0
-198 80 0
-198 281 0
-137 -22 -80 -282 199 0
-199 137 0
-199 22 0
-199 80 0
-199 282 0
195 196 197 198 199 189 -248 0
-200 -257 201 0
-201 200 0
-201 257 0
-200 -61 -267 202 0
-202 200 0
-202 61 0
-202 267 0
-200 -80 -268 203 0
-203 200 0
-203 80 0
-203 268 0
-200 -99 -269 204 0
-204 200 0
-204 99 0
-204 269 0
-200 -118 -270 205 0
-205 200 0
-205 118 0
-205 270 0
201 202 203 204 205 -200 249 0
-137 -99 -55 -253 206 0
-206 137 0
-206 99 0
-206 55 0
-206 253 0
-137 -25 -99 -283 207 0
-207 137 0
-207 25 0
-207 99 0
-207 283 0
-137 -28 -99 -284 208 0
-208 137 0
-208 28 0
-208 99 0
-208 284 0
-137 -31 -99 -285 209 0
-209 137 0
-209 31 0
-209 99 0
-209 285 0
-137 -34 -99 -286 210 0
-210 137 0
-210 34 0
-210 99 0
-210 286 0
206 207 208 209 210 200 -249 0
-211 -258 212 0
-212 211 0
-212 258 0
-211 -61 -271 213 0
-213 211 0
-213 61 0
-213 271 0
-211 -80 -272 214 0
-214 211 0
-214 80 0
-214 272 0
-211 -99 -273 215 0
-215 211 0
-215 99 0
-215 273 0
-211 -118 -274 216 0
-216 211 0
-216 118 0
-216 274 0
212 213 214 215 216 -211 250 0
-137 -118 -58 -254 217 0
-217 137 0
-217 118 0
-217 58 0
-217 254 0
-137 -37 -118 -287 218 0
-218 137 0
-218 37 0
-218 118 0
-218 287 0
-137 -40 -118 -288 219 0
-219 137 0
-219 40 0
-219 118 0
-219 288 0
-137 -43 -118 -289 220 0
-220 137 0
-220 43 0
-220 118 0
-220 289 0
-137 -46 -118 -290 221 0
-221 137 0
-221 46 0
-221 118 0
-221 290 0
217 218 219 220 221 211 -250 0
-251 -255 0
-251 -256 0
-251 -257 0
-251 -258 0
-251 -259 0
-251 -260 0
-251 -261 0
-251 -262 0
-251 -263 0
-251 -264 0
-251 -265 0
-251 -266 0
-251 -267 0
-251 -268 0
-251 -269 0
-251 -270 0
-251 -271 0
-251 -272 0
-251 -273 0
-251 -274 0
-251 -275 0
-251 -279 0
-251 -283 0
-251 -287 0
-252 -255 0
-252 -256 0
-252 -257 0
-252 -258 0
-252 -259 0
-252 -260 0
-252 -261 0
-252 -262 0
-252 -263 0
-252 -264 0
-252 -265 0
-252 -266 0
-252 -267 0
-252 -268 0
-252 -269 0
-252 -270 0
-252 -271 0
-252 -272 0
-252 -273 0
-252 -274 0
-252 -276 0
-252 -280 0
-252 -284 0
-252 -288 0
-253 -255 0
-253 -256 0
-253 -257 0
-253 -258 0
-253 -259 0
-253 -260 0
-253 -261 0
-253 -262 0
-253 -263 0
-253 -264 0
-253 -265 0
-253 -266 0
-253 -267 0
-253 -268 0
-253 -269 0
-253 -270 0
-253 -271 0
-253 -272 0
-253 -273 0
-253 -274 0
-253 -277 0
-253 -281 0
-253 -285 0
-253 -289 0
-254 -255 0
-254 -256 0
-254 -257 0
-254 -258 0
-254 -259 0
-254 -260 0
-254 -261 0
-254 -262 0
-254 -263 0
-254 -264 0
-254 -265 0
-254 -266 0
-254 -267 0
-254 -268 0
-254 -269 0
-254 -270 0
-254 -271 0
-254 -272 0
-254 -273 0
-254 -274 0
-254 -278 0
-254 -282 0
-254 -286 0
-254 -290 0
-255 -259 0
-255 -263 0
-255 -267 0
-255 -271 0
-255 -275 0
-255 -276 0
-255 -277 0
-255 -278 0
-255 -279 0
-255 -280 0
-255 -281 0
-255 -282 0
-255 -283 0
-255 -284 0
-255 -285 0
-255 -286 0
-255 -287 0
-255 -288 0
-255 -289 0
-255 -290 0
-256 -260 0
-256 -264 0
-256 -268 0
-256 -272 0
-256 -275 0
-256 -276 0
-256 -277 0
-256 -278 0
-256 -279 0
-256 -280 0
-256 -281 0
-256 -282 0
-256 -283 0
-256 -284 0
-256 -285 0
-256 -286 0
-256 -287 0
-256 -288 0
-256 -289 0
-256 -290 0
-257 -261 0
-257 -265 0
-257 -269 0
-257 -273 0
-257 -275 0
-257 -276 0
-257 -277 0
-257 -278 0
-257 -279 0
-257 -280 0
-257 -281 0
-257 -282 0
-257 -283 0
-257 -284 0
-257 -285 0
-257 -286 0
-257 -287 0
-257 -288 0
-257 -289 0
-257 -290 0
-258 -262 0
-258 -266 0
-258 -270 0
-258 -274 0
-258 -275 0
-258 -276 0
-258 -277 0
-258 -278 0
-258 -279 0
-258 -280 0
-258 -281 0
-258 -282 0
-258 -283 0
-258 -284 0
-258 -285 0
-258 -286 0
-258 -287 0
-258 -288 0
-258 -289 0
-258 -290 0
-259 -260 0
-259 -261 0
-259 -262 0
-259 -263 0
-259 -267 0
-259 -271 0
-259 -275 0
-259 -276 0
-259 -277 0
-259 -278 0
-259 -279 0
-259 -280 0
-259 -281 0
-259 -282 0
-259 -283 0
-259 -284 0
-259 -285 0
-259 -286 0
-259 -287 0
-259 -288 0
-259 -289 0
-259 -290 0
-260 -263 0
-260 -264 0
-260 -265 0
-260 -266 0
-260 -267 0
-260 -271 0
-260 -275 0
-260 -276 0
-260 -277 0
-260 -278 0
-260 -279 0
-260 -280 0
-260 -281 0
-260 -282 0
-260 -283 0
-260 -284 0
-260 -285 0
-260 -286 0
-260 -287 0
-260 -288 0
-260 -289 0
-260 -290 0
-261 -263 0
-261 -267 0
-261 -268 0
-261 -269 0
-261 -270 0
-261 -271 0
-261 -275 0
-261 -276 0
-261 -277 0
-261 -278 0
-261 -279 0
-261 -280 0
-261 -281 0
-261 -282 0
-261 -283 0
-261 -284 0
-261 -285 0
-261 -286 0
-261 -287 0
-261 -288 0
-261 -289 0
-261 -290 0
-262 -263 0
-262 -267 0
-262 -271 0
-262 -272 0
-262 -273 0
-262 -274 0
-262 -275 0
-262 -276 0
-262 -277 0
-262 -278 0
-262 -279 0
-262 -280 0
-262 -281 0
-262 -282 0
-262 -283 0
-262 -284 0
-262 -285 0
-262 -286 0
-262 -287 0
-262 -288 0
-262 -289 0
-262 -290 0
-263 -264 0
-263 -268 0
-263 -272 0
-263 -275 0
-263 -276 0
-263 -277 0
-263 -278 0
-263 -279 0
-263 -280 0
-263 -281 0
-263 -282 0
-263 -283 0
-263 -284 0
-263 -285 0
-263 -286 0
-263 -287 0
-263 -288 0
-263 -289 0
-263 -290 0
-264 -265 0
-264 -266 0
-264 -268 0
-264 -272 0
-264 -275 0
-264 -276 0
-264 -277 0
-264 -278 0
-264 -279 0
-264 -280 0
-264 -281 0
-264 -282 0
-264 -283 0
-264 -284 0
-264 -285 0
-264 -286 0
-264 -287 0
-264 -288 0
-264 -289 0
-264 -290 0
-265 -267 0
-265 -268 0
-265 -269 0
-265 -270 0
-265 -272 0
-265 -275 0
-265 -276 0
-265 -277 0
-265 -278 0
-265 -279 0
-265 -280 0
-265 -281 0
-265 -282 0
-265 -283 0
-265 -284 0
-265 -285 0
-265 -286 0
-265 -287 0
-265 -288 0
-265 -289 0
-265 -290 0
-266 -268 0
-266 -271 0
-266 -272 0
-266 -273 0
-266 -274 0
-266 -275 0
-266 -276 0
-266 -277 0
-266 -278 0
-266 -279 0
-266 -280 0
-266 -281 0
-266 -282 0
-266 -283 0
-266 -284 0
-266 -285 0
-266 -286 0
-266 -287 0
-266 -288 0
-266 -289 0
-266 -290 0
-267 -269 0
-267 -273 0
-267 -275 0
-267 -276 0
-267 -277 0
-267 -278 0
-267 -279 0
-267 -280 0
-267 -281 0
-267 -282 0
-267 -283 0
-267 -284 0
-267 -285 0
-267 -286 0
-267 -287 0
-267 -288 0
-267 -289 0
-267 -290 0
-268 -269 0
-268 -273 0
-268 -275 0
-268 -276 0
-268 -277 0
-268 -278 0
-268 -279 0
-268 -280 0
-268 -281 0
-268 -282 0
-268 -283 0
-268 -284 0
-268 -285 0
-268 -286 0
-268 -287 0
-268 -288 0
-268 -289 0
-268 -290 0
-269 -270 0
-269 -273 0
-269 -275 0
-269 -276 0
-269 -277 0
-269 -278 0
-269 -279 0
-269 -280 0
-269 -281 0
-269 -282 0
-269 -283 0
-269 -284 0
-269 -285 0
-269 -286 0
-269 -287 0
-269 -288 0
-269 -289 0
-269 -290 0
-270 -271 0
-270 -272 0
-270 -273 0
-270 -274 0
-270 -275 0
-270 -276 0
-270 -277 0
-270 -278 0
-270 -279 0
-270 -280 0
-270 -281 0
-270 -282 0
-270 -283 0
-270 -284 0
-270 -285 0
-270 -286 0
-270 -287 0
-270 -288 0
-270 -289 0
-270 -290 0
-271 -274 0
-271 -275 0
-271 -276 0
-271 -277 0
-271 -278 0
-271 -279 0
-271 -280 0
-271 -281 0
-271 -282 0
-271 -283 0
-271 -284 0
-271 -285 0
-271 -286 0
-271 -287 0
-271 -288 0
-271 -289 0
-271 -290 0
-272 -274 0
-272 -275 0
-272 -276 0
-272 -277 0
-272 -278 0
-272 -279 0
-272 -280 0
-272 -281 0
-272 -282 0
-272 -283 0
-272 -284 0
-272 -285 0
-272 -286 0
-272 -287 0
-272 -288 0
-272 -289 0
-272 -290 0
-273 -274 0
-273 -275 0
-273 -276 0
-273 -277 0
-273 -278 0
-273 -279 0
-273 -280 0
-273 -281 0
-273 -282 0
-273 -283 0
-273 -284 0
-273 -285 0
-273 -286 0
-273 -287 0
-273 -288 0
-273 -289 0
-273 -290 0
-274 -275 0
-274 -276 0
-274 -277 0
-274 -278 0
-274 -279 0
-274 -280 0
-274 -281 0
-274 -282 0
-274 -283 0
-274 -284 0
-274 -285 0
-274 -286 0
-274 -287 0
-274 -288 0
-274 -289 0
-274 -290 0
-275 -276 0
-275 -277 0
-275 -278 0
-275 -279 0
-275 -283 0
-275 -287 0
-276 -279 0
-276 -280 0
-276 -281 0
-276 -282 0
-276 -283 0
-276 -287 0
-277 -279 0
-277 -283 0
-277 -284 0
-277 -285 0
-277 -286 0
-277 -287 0
-278 -279 0
-278 -283 0
-278 -287 0
-278 -288 0
-278 -289 0
-278 -290 0
-279 -280 0
-279 -284 0
-279 -288 0
-280 -281 0
-280 -282 0
-280 -284 0
-280 -288 0
-281 -283 0
-281 -284 0
-281 -285 0
-281 -286 0
-281 -288 0
-282 -284 0
-282 -287 0
-282 -288 0
-282 -289 0
-282 -290 0
-283 -285 0
-283 -289 0
-284 -285 0
-284 -289 0
-285 -286 0
-285 -289 0
-286 -287 0
-286 -288 0
-286 -289 0
-286 -290 0
-287 -290 0
-288 -290 0
-289 -290 0
